NAME : tsp_59_sol.txt
COMMENT : OR-Tools Guided Local Search
TYPE : TOUR
DIMENSION : 115
COST : 8137
STATUS : ROUTING_SUCCESS
GAP : 0.00% (Reference Solution)
TOUR_SECTION
1
13
31
67
12
97
71
21
105
99
48
54
112
102
109
94
44
98
55
90
100
79
80
61
2
22
36
83
92
24
10
53
23
17
50
82
46
70
32
59
14
91
75
81
30
28
93
33
41
115
88
6
77
85
111
95
84
104
96
106
5
86
39
11
62
34
63
73
69
40
78
64
27
89
74
68
114
42
76
47
7
57
87
25
113
15
52
43
60
20
18
9
3
66
108
101
51
107
49
110
26
4
103
37
35
8
29
16
45
65
38
19
58
72
56
-1
